CMPL model generation - running

CMPL version: 1.11.0
Authors: Thomas Schleiff, Mike Steglich
Distributed under the GPLv3 

create model instance ...
write model instance ...
CMPL model generation - finished

Solver - running


Welcome to IBM(R) ILOG(R) CPLEX(R) Interactive Optimizer 12.7.1.0
  with Simplex, Mixed Integer & Barrier Optimizers
5725-A06 5725-A29 5724-Y48 5724-Y49 5724-Y54 5724-Y55 5655-Y21
Copyright IBM Corp. 1988, 2017.  All Rights Reserved.

Type 'help' for a list of available commands.
Type 'help' followed by a command name for more
information on commands.

CPLEX> Specified objective sense: MINIMIZE
Selected objective  name:  line[1]
Selected RHS        name:  RHS
Selected bound      name:  BOUND
Problem '/tmp/cmpl.T23402.mps' read.
Read time = 0.06 sec. (10.11 ticks)
CPLEX> CPXPARAM_Read_APIEncoding                        "UTF-8"
Tried aggregator 3 times.
MIP Presolve eliminated 24122 rows and 37790 columns.
MIP Presolve modified 425 coefficients.
Aggregator did 682 substitutions.
Reduced MIP has 3118 rows, 3983 columns, and 11811 nonzeros.
Reduced MIP has 3773 binaries, 0 generals, 0 SOSs, and 0 indicators.
Presolve time = 0.06 sec. (49.92 ticks)
Found incumbent of value 251.100016 after 0.09 sec. (65.28 ticks)
Probing fixed 7 vars, tightened 0 bounds.
Probing time = 0.01 sec. (5.03 ticks)
Tried aggregator 1 time.
MIP Presolve eliminated 0 rows and 7 columns.
MIP Presolve modified 32 coefficients.
Reduced MIP has 3118 rows, 3976 columns, and 11797 nonzeros.
Reduced MIP has 3976 binaries, 0 generals, 0 SOSs, and 0 indicators.
Presolve time = 0.01 sec. (10.04 ticks)
Probing time = 0.01 sec. (2.82 ticks)
Clique table members: 6689.
MIP emphasis: balance optimality and feasibility.
MIP search method: dynamic search.
Parallel mode: none, using 1 thread.
Root relaxation solution time = 0.00 sec. (5.32 ticks)

        Nodes                                         Cuts/
   Node  Left     Objective  IInf  Best Integer    Best Bound    ItCnt     Gap

*     0+    0                          251.1000      -38.0560           115.16%
      0     0       12.9023    19      251.1000       12.9023       85   94.86%
*     0+    0                           50.5240       12.9023            74.46%
*     0+    0                           13.3366       12.9023             3.26%
      0     0        cutoff             13.3366                     85    0.00%
Elapsed time = 0.16 sec. (105.08 ticks, tree = 0.01 MB, solutions = 3)

Root node processing (before b&c):
  Real time             =    0.16 sec. (106.90 ticks)
Sequential b&c:
  Real time             =    0.00 sec. (0.00 ticks)
                          ------------
Total (root+branch&cut) =    0.16 sec. (106.90 ticks)

Solution pool: 3 solutions saved.

MIP - Integer optimal solution:  Objective =  1.3336614000e+01
Solution time =    0.16 sec.  Iterations = 85  Nodes = 0
Deterministic time = 107.03 ticks  (671.16 ticks/sec)

CPLEX> Incumbent solution written to file '/tmp/cmpl.T23402.gsol'.
CPLEX> 
CMPL: Time used for model generation: 1 seconds
CMPL: Time used for solving the model: 1 seconds


Solution written to ASCII file: results/output_generated_conf_0/2017-10-02-5/fair-nonlinear.sol

Solver - finished
